NAME MasterProb
ROWS
 N  OBJ
 G  R0      
 G  R1      
 G  R2      
 G  R3      
 G  R4      
 G  R5      
 G  R6      
 G  R7      
 G  R8      
 G  R9      
 G  R10     
 G  R11     
 G  R12     
 G  R13     
 G  R14     
 G  R15     
 G  R16     
 G  R17     
COLUMNS
    X[1,1,1]  OBJ       1.2303742970546564e+01
    X[1,1,1]  R0        -110
    X[1,1,1]  R6        -1
    X[1,1,1]  R12       1
    X[1,1,2]  OBJ       1.1185220882315058e+01
    X[1,1,2]  R0        -100
    X[1,1,2]  R7        -1
    X[1,1,2]  R13       1
    X[1,1,3]  OBJ       2.2370441764630118e+00
    X[1,1,3]  R0        -20
    X[1,1,3]  R8        -1
    X[1,1,3]  R14       1
    X[1,2,1]  OBJ       1.2303742970546564e+01
    X[1,2,1]  R1        -110
    X[1,2,1]  R6        -1
    X[1,2,1]  R12       1
    X[1,2,2]  OBJ       1.1185220882315058e+01
    X[1,2,2]  R1        -100
    X[1,2,2]  R7        -1
    X[1,2,2]  R13       1
    X[1,2,3]  OBJ       2.2370441764630118e+00
    X[1,2,3]  R1        -20
    X[1,2,3]  R8        -1
    X[1,2,3]  R14       1
    X[1,3,1]  OBJ       1.2303742970546564e+01
    X[1,3,1]  R2        -110
    X[1,3,1]  R6        -1
    X[1,3,1]  R12       1
    X[1,3,2]  OBJ       1.1185220882315058e+01
    X[1,3,2]  R2        -100
    X[1,3,2]  R7        -1
    X[1,3,2]  R13       1
    X[1,3,3]  OBJ       2.2370441764630118e+00
    X[1,3,3]  R2        -20
    X[1,3,3]  R8        -1
    X[1,3,3]  R14       1
    X[2,1,1]  OBJ       1.2303742970546564e+01
    X[2,1,1]  R3        -110
    X[2,1,1]  R9        -1
    X[2,1,1]  R15       1
    X[2,1,2]  OBJ       1.1185220882315058e+01
    X[2,1,2]  R3        -100
    X[2,1,2]  R10       -1
    X[2,1,2]  R16       1
    X[2,1,3]  OBJ       2.2370441764630118e+00
    X[2,1,3]  R3        -20
    X[2,1,3]  R11       -1
    X[2,1,3]  R17       1
    X[2,2,1]  OBJ       1.2303742970546564e+01
    X[2,2,1]  R4        -110
    X[2,2,1]  R9        -1
    X[2,2,1]  R15       1
    X[2,2,2]  OBJ       1.1185220882315058e+01
    X[2,2,2]  R4        -100
    X[2,2,2]  R10       -1
    X[2,2,2]  R16       1
    X[2,2,3]  OBJ       2.2370441764630118e+00
    X[2,2,3]  R4        -20
    X[2,2,3]  R11       -1
    X[2,2,3]  R17       1
    X[2,3,1]  OBJ       1.2303742970546564e+01
    X[2,3,1]  R5        -110
    X[2,3,1]  R9        -1
    X[2,3,1]  R15       1
    X[2,3,2]  OBJ       1.1185220882315058e+01
    X[2,3,2]  R5        -100
    X[2,3,2]  R10       -1
    X[2,3,2]  R16       1
    X[2,3,3]  OBJ       2.2370441764630118e+00
    X[2,3,3]  R5        -20
    X[2,3,3]  R11       -1
    X[2,3,3]  R17       1
    eta       OBJ       1
RHS
    RHS1      R0        -250000
    RHS1      R1        -250000
    RHS1      R2        -250000
    RHS1      R3        -125000
    RHS1      R4        -125000
    RHS1      R5        -125000
    RHS1      R6        -10000
    RHS1      R7        -10000.8
    RHS1      R8        -4000
    RHS1      R9        -50.1
    RHS1      R10       -40.1
    RHS1      R11       -30.1
    RHS1      R12       10
    RHS1      R13       10
    RHS1      R14       2
BOUNDS
 LO BND1      X[1,1,1]  10
 UP BND1      X[1,1,1]  10000
 LO BND1      X[1,1,2]  10
 UP BND1      X[1,1,2]  10000.8
 LO BND1      X[1,1,3]  2
 UP BND1      X[1,1,3]  4000
 LO BND1      X[1,2,1]  10
 UP BND1      X[1,2,1]  10000
 LO BND1      X[1,2,2]  10
 UP BND1      X[1,2,2]  10000.8
 LO BND1      X[1,2,3]  2
 UP BND1      X[1,2,3]  4000
 LO BND1      X[1,3,1]  10
 UP BND1      X[1,3,1]  10000
 LO BND1      X[1,3,2]  10
 UP BND1      X[1,3,2]  10000.8
 LO BND1      X[1,3,3]  2
 UP BND1      X[1,3,3]  4000
 UP BND1      X[2,1,1]  50.1
 UP BND1      X[2,1,2]  40.1
 UP BND1      X[2,1,3]  30.1
 UP BND1      X[2,2,1]  50.1
 UP BND1      X[2,2,2]  40.1
 UP BND1      X[2,2,3]  30.1
 UP BND1      X[2,3,1]  50.1
 UP BND1      X[2,3,2]  40.1
 UP BND1      X[2,3,3]  30.1
 LO BND1      eta       -10000000
ENDATA
